visualize/sample1_WL.sol
# Objective value = 221
y 10
max_n0x 11
min_n0x 0
max_n0y 10
min_n0y 0
x1 0
r1 1
y1 0
x2 6
r2 1
y2 0
x3 0
r3 0
y3 8
p12 0
q12 0
p13 0
q13 1
p23 0
q23 1
